166032
51,38,49,3,52,82,40,14,5,60,29,7,34,27,74,41,54,2,11,22,68,77,24,42,80,56,59,46,48,33,55,32,26,71,50,39,20,70,53,45,61,69,13,72,79,44,28,63,9,0,36,64,4,18,23,47,17,12,65,25,35,66,75,19,76,8,31,73,6,16,57,1,15,10,81,30,21,43,58,67,37,78,62
